3 15
435 461 264 
0 95 81 80 99 56 18 65 81 3 5 82 72 1
1 4 33 12 68 29 10 98 40 91 1 78 24 1
2 53 83 54 54 62 24 62 15 44 4 24 73 2
3 9 100 86 55 62 1 35 50 67 79 79 42 3
4 71 25 39 76 16 18 84 77 5 2 3 36 3
5 94 99 3 45 11 100 56 45 7 13 44 9 2
6 19 58 67 85 16 11 72 81 47 30 48 42 1
7 53 29 85 67 26 6 100 54 93 46 39 40 3
8 100 18 52 85 13 51 35 4 35 79 39 73 3
9 44 63 4 18 73 64 61 81 1 96 70 92 2
10 92 93 85 39 69 78 83 9 11 35 20 81 3
11 96 80 61 91 33 1 67 42 56 78 26 27 3
12 64 13 25 64 85 6 48 56 76 55 58 2 1
13 11 9 52 56 92 94 97 15 33 72 82 90 2
14 20 86 93 20 65 47 89 11 69 73 25 50 2
